(set-logic QF_S)

( declare-fun  x1 () String )
 ( declare-fun  x2 () String )
 ( declare-fun  z () String )
 ( declare-fun  t1 () String )
 ( declare-fun  t2 () String )
 ( declare-fun  t3 () String )
 ( declare-fun  t4 () String )
 ( declare-fun  t5 () String )
 ( declare-fun  t6 () String )
 ( declare-fun  t7 () String )
 ( assert ( =( str.++( str.++( str.++( str.++ "ab"  z  ) ( str.++ x1  "abdd"  )  )  x2  ) ( str.++( str.++ t6 ( str.++ t1  t3  )  ) ( str.++( str.++ t7  t5  ) ( str.++ t2  t4  )  )  )  ) ( str.++( str.++ z  "ba"  ) ( str.++( str.++ x2  "dcba"  )  x1  )  )  ) )
 ( check-sat )
 